p cnf 387 1769
c p weight 158 0 0
c p weight -158 1 0
c p weight 159 1 0
c p weight -159 1 0
c p weight 384 -1 0
c p weight -384 1 0
c p weight 387 0.5 0
387 0
-153 0
-151 0
-149 0
-147 0
-145 0
-143 0
-141 0
-139 0
-137 0
-135 0
-133 0
-131 0
-129 0
-127 0
-125 0
-123 0
-121 0
-119 0
-117 0
-115 0
-113 0
-111 0
-109 0
-107 0
-105 0
-103 0
-101 0
-99 0
-97 0
-95 0
-93 0
-91 0
-89 0
-87 0
-85 0
-83 0
-81 0
-79 0
-77 0
-75 0
-73 0
-71 0
-69 0
-67 0
-65 0
-63 0
-61 0
-59 0
-57 0
-55 0
-53 0
-51 0
-49 0
-47 0
-45 0
-43 0
-41 0
-39 0
-37 0
-35 0
-33 0
-31 0
-29 0
-27 0
-25 0
-23 0
-21 0
-19 0
-17 0
-15 0
-13 0
-11 0
-9 0
-7 0
-5 0
-3 0
-1 0
154 -153 151 0
154 -153 152 0
-154 153 151 0
-154 153 152 0
154 153 -151 -152 0
-154 -153 -151 -152 0
155 151 -152 0
155 -151 152 0
-155 151 152 0
-155 -151 -152 0
156 157 -154 0
156 -154 155 0
-156 157 154 0
-156 154 155 0
156 -154 -151 0
-156 154 -151 0
156 -157 154 151 -155 0
-156 -157 -154 151 -155 0
157 -151 155 0
-157 151 155 0
-158 155 0
157 -158 -151 0
-157 -158 151 0
157 158 151 -155 0
-157 158 -151 -155 0
-159 155 0
157 -159 151 0
-157 -159 -151 0
157 159 -151 -155 0
-157 159 151 -155 0
160 -156 157 0
160 -156 155 0
-160 156 157 0
-160 156 155 0
160 156 -157 -155 0
-160 -156 -157 -155 0
161 157 -155 0
161 -157 155 0
-161 157 155 0
-161 -157 -155 0
162 -160 157 0
162 -160 150 0
-162 160 157 0
-162 160 150 0
162 -160 149 -161 0
162 -160 -149 161 0
-162 160 149 -161 0
-162 160 -149 161 0
162 160 -157 149 161 -150 0
162 160 -157 -149 -161 -150 0
-162 -160 -157 149 161 -150 0
-162 -160 -157 -149 -161 -150 0
164 157 -149 0
164 -157 149 0
-164 157 149 0
-164 -157 -149 0
163 161 -150 0
163 -161 150 0
-163 161 150 0
-163 -161 -150 0
165 -162 164 0
165 -162 148 0
-165 162 164 0
-165 162 148 0
165 -162 147 -150 0
165 -162 -147 150 0
-165 162 147 -150 0
-165 162 -147 150 0
165 162 -164 147 150 -148 0
165 162 -164 -147 -150 -148 0
-165 -162 -164 147 150 -148 0
-165 -162 -164 -147 -150 -148 0
167 164 -147 0
167 -164 147 0
-167 164 147 0
-167 -164 -147 0
166 150 -148 0
166 -150 148 0
-166 150 148 0
-166 -150 -148 0
168 -165 167 0
168 -165 146 0
-168 165 167 0
-168 165 146 0
168 -165 145 -148 0
168 -165 -145 148 0
-168 165 145 -148 0
-168 165 -145 148 0
168 165 -167 145 148 -146 0
168 165 -167 -145 -148 -146 0
-168 -165 -167 145 148 -146 0
-168 -165 -167 -145 -148 -146 0
170 167 -145 0
170 -167 145 0
-170 167 145 0
-170 -167 -145 0
169 148 -146 0
169 -148 146 0
-169 148 146 0
-169 -148 -146 0
171 -168 170 0
171 -168 144 0
-171 168 170 0
-171 168 144 0
171 -168 143 -146 0
171 -168 -143 146 0
-171 168 143 -146 0
-171 168 -143 146 0
171 168 -170 143 146 -144 0
171 168 -170 -143 -146 -144 0
-171 -168 -170 143 146 -144 0
-171 -168 -170 -143 -146 -144 0
173 170 -143 0
173 -170 143 0
-173 170 143 0
-173 -170 -143 0
172 146 -144 0
172 -146 144 0
-172 146 144 0
-172 -146 -144 0
174 -171 173 0
174 -171 142 0
-174 171 173 0
-174 171 142 0
174 -171 141 -144 0
174 -171 -141 144 0
-174 171 141 -144 0
-174 171 -141 144 0
174 171 -173 141 144 -142 0
174 171 -173 -141 -144 -142 0
-174 -171 -173 141 144 -142 0
-174 -171 -173 -141 -144 -142 0
176 173 -141 0
176 -173 141 0
-176 173 141 0
-176 -173 -141 0
175 144 -142 0
175 -144 142 0
-175 144 142 0
-175 -144 -142 0
177 -174 176 0
177 -174 140 0
-177 174 176 0
-177 174 140 0
177 -174 139 -142 0
177 -174 -139 142 0
-177 174 139 -142 0
-177 174 -139 142 0
177 174 -176 139 142 -140 0
177 174 -176 -139 -142 -140 0
-177 -174 -176 139 142 -140 0
-177 -174 -176 -139 -142 -140 0
179 176 -139 0
179 -176 139 0
-179 176 139 0
-179 -176 -139 0
178 142 -140 0
178 -142 140 0
-178 142 140 0
-178 -142 -140 0
180 -177 179 0
180 -177 138 0
-180 177 179 0
-180 177 138 0
180 -177 137 -140 0
180 -177 -137 140 0
-180 177 137 -140 0
-180 177 -137 140 0
180 177 -179 137 140 -138 0
180 177 -179 -137 -140 -138 0
-180 -177 -179 137 140 -138 0
-180 -177 -179 -137 -140 -138 0
182 179 -137 0
182 -179 137 0
-182 179 137 0
-182 -179 -137 0
181 140 -138 0
181 -140 138 0
-181 140 138 0
-181 -140 -138 0
183 -180 182 0
183 -180 136 0
-183 180 182 0
-183 180 136 0
183 -180 135 -138 0
183 -180 -135 138 0
-183 180 135 -138 0
-183 180 -135 138 0
183 180 -182 135 138 -136 0
183 180 -182 -135 -138 -136 0
-183 -180 -182 135 138 -136 0
-183 -180 -182 -135 -138 -136 0
185 182 -135 0
185 -182 135 0
-185 182 135 0
-185 -182 -135 0
184 138 -136 0
184 -138 136 0
-184 138 136 0
-184 -138 -136 0
186 -183 185 0
186 -183 134 0
-186 183 185 0
-186 183 134 0
186 -183 133 -136 0
186 -183 -133 136 0
-186 183 133 -136 0
-186 183 -133 136 0
186 183 -185 133 136 -134 0
186 183 -185 -133 -136 -134 0
-186 -183 -185 133 136 -134 0
-186 -183 -185 -133 -136 -134 0
188 185 -133 0
188 -185 133 0
-188 185 133 0
-188 -185 -133 0
187 136 -134 0
187 -136 134 0
-187 136 134 0
-187 -136 -134 0
189 -186 188 0
189 -186 132 0
-189 186 188 0
-189 186 132 0
189 -186 131 -134 0
189 -186 -131 134 0
-189 186 131 -134 0
-189 186 -131 134 0
189 186 -188 131 134 -132 0
189 186 -188 -131 -134 -132 0
-189 -186 -188 131 134 -132 0
-189 -186 -188 -131 -134 -132 0
191 188 -131 0
191 -188 131 0
-191 188 131 0
-191 -188 -131 0
190 134 -132 0
190 -134 132 0
-190 134 132 0
-190 -134 -132 0
192 -189 191 0
192 -189 130 0
-192 189 191 0
-192 189 130 0
192 -189 129 -132 0
192 -189 -129 132 0
-192 189 129 -132 0
-192 189 -129 132 0
192 189 -191 129 132 -130 0
192 189 -191 -129 -132 -130 0
-192 -189 -191 129 132 -130 0
-192 -189 -191 -129 -132 -130 0
194 191 -129 0
194 -191 129 0
-194 191 129 0
-194 -191 -129 0
193 132 -130 0
193 -132 130 0
-193 132 130 0
-193 -132 -130 0
195 -192 194 0
195 -192 128 0
-195 192 194 0
-195 192 128 0
195 -192 127 -130 0
195 -192 -127 130 0
-195 192 127 -130 0
-195 192 -127 130 0
195 192 -194 127 130 -128 0
195 192 -194 -127 -130 -128 0
-195 -192 -194 127 130 -128 0
-195 -192 -194 -127 -130 -128 0
197 194 -127 0
197 -194 127 0
-197 194 127 0
-197 -194 -127 0
196 130 -128 0
196 -130 128 0
-196 130 128 0
-196 -130 -128 0
198 -195 197 0
198 -195 126 0
-198 195 197 0
-198 195 126 0
198 -195 125 -128 0
198 -195 -125 128 0
-198 195 125 -128 0
-198 195 -125 128 0
198 195 -197 125 128 -126 0
198 195 -197 -125 -128 -126 0
-198 -195 -197 125 128 -126 0
-198 -195 -197 -125 -128 -126 0
200 197 -125 0
200 -197 125 0
-200 197 125 0
-200 -197 -125 0
199 128 -126 0
199 -128 126 0
-199 128 126 0
-199 -128 -126 0
201 -198 200 0
201 -198 124 0
-201 198 200 0
-201 198 124 0
201 -198 123 -126 0
201 -198 -123 126 0
-201 198 123 -126 0
-201 198 -123 126 0
201 198 -200 123 126 -124 0
201 198 -200 -123 -126 -124 0
-201 -198 -200 123 126 -124 0
-201 -198 -200 -123 -126 -124 0
203 200 -123 0
203 -200 123 0
-203 200 123 0
-203 -200 -123 0
202 126 -124 0
202 -126 124 0
-202 126 124 0
-202 -126 -124 0
204 -201 203 0
204 -201 122 0
-204 201 203 0
-204 201 122 0
204 -201 121 -124 0
204 -201 -121 124 0
-204 201 121 -124 0
-204 201 -121 124 0
204 201 -203 121 124 -122 0
204 201 -203 -121 -124 -122 0
-204 -201 -203 121 124 -122 0
-204 -201 -203 -121 -124 -122 0
206 203 -121 0
206 -203 121 0
-206 203 121 0
-206 -203 -121 0
205 124 -122 0
205 -124 122 0
-205 124 122 0
-205 -124 -122 0
207 -204 206 0
207 -204 120 0
-207 204 206 0
-207 204 120 0
207 -204 119 -122 0
207 -204 -119 122 0
-207 204 119 -122 0
-207 204 -119 122 0
207 204 -206 119 122 -120 0
207 204 -206 -119 -122 -120 0
-207 -204 -206 119 122 -120 0
-207 -204 -206 -119 -122 -120 0
209 206 -119 0
209 -206 119 0
-209 206 119 0
-209 -206 -119 0
208 122 -120 0
208 -122 120 0
-208 122 120 0
-208 -122 -120 0
210 -207 209 0
210 -207 118 0
-210 207 209 0
-210 207 118 0
210 -207 117 -120 0
210 -207 -117 120 0
-210 207 117 -120 0
-210 207 -117 120 0
210 207 -209 117 120 -118 0
210 207 -209 -117 -120 -118 0
-210 -207 -209 117 120 -118 0
-210 -207 -209 -117 -120 -118 0
212 209 -117 0
212 -209 117 0
-212 209 117 0
-212 -209 -117 0
211 120 -118 0
211 -120 118 0
-211 120 118 0
-211 -120 -118 0
213 -210 212 0
213 -210 116 0
-213 210 212 0
-213 210 116 0
213 -210 115 -118 0
213 -210 -115 118 0
-213 210 115 -118 0
-213 210 -115 118 0
213 210 -212 115 118 -116 0
213 210 -212 -115 -118 -116 0
-213 -210 -212 115 118 -116 0
-213 -210 -212 -115 -118 -116 0
215 212 -115 0
215 -212 115 0
-215 212 115 0
-215 -212 -115 0
214 118 -116 0
214 -118 116 0
-214 118 116 0
-214 -118 -116 0
216 -213 215 0
216 -213 114 0
-216 213 215 0
-216 213 114 0
216 -213 113 -116 0
216 -213 -113 116 0
-216 213 113 -116 0
-216 213 -113 116 0
216 213 -215 113 116 -114 0
216 213 -215 -113 -116 -114 0
-216 -213 -215 113 116 -114 0
-216 -213 -215 -113 -116 -114 0
218 215 -113 0
218 -215 113 0
-218 215 113 0
-218 -215 -113 0
217 116 -114 0
217 -116 114 0
-217 116 114 0
-217 -116 -114 0
219 -216 218 0
219 -216 112 0
-219 216 218 0
-219 216 112 0
219 -216 111 -114 0
219 -216 -111 114 0
-219 216 111 -114 0
-219 216 -111 114 0
219 216 -218 111 114 -112 0
219 216 -218 -111 -114 -112 0
-219 -216 -218 111 114 -112 0
-219 -216 -218 -111 -114 -112 0
221 218 -111 0
221 -218 111 0
-221 218 111 0
-221 -218 -111 0
220 114 -112 0
220 -114 112 0
-220 114 112 0
-220 -114 -112 0
222 -219 221 0
222 -219 110 0
-222 219 221 0
-222 219 110 0
222 -219 109 -112 0
222 -219 -109 112 0
-222 219 109 -112 0
-222 219 -109 112 0
222 219 -221 109 112 -110 0
222 219 -221 -109 -112 -110 0
-222 -219 -221 109 112 -110 0
-222 -219 -221 -109 -112 -110 0
224 221 -109 0
224 -221 109 0
-224 221 109 0
-224 -221 -109 0
223 112 -110 0
223 -112 110 0
-223 112 110 0
-223 -112 -110 0
225 -222 224 0
225 -222 108 0
-225 222 224 0
-225 222 108 0
225 -222 107 -110 0
225 -222 -107 110 0
-225 222 107 -110 0
-225 222 -107 110 0
225 222 -224 107 110 -108 0
225 222 -224 -107 -110 -108 0
-225 -222 -224 107 110 -108 0
-225 -222 -224 -107 -110 -108 0
227 224 -107 0
227 -224 107 0
-227 224 107 0
-227 -224 -107 0
226 110 -108 0
226 -110 108 0
-226 110 108 0
-226 -110 -108 0
228 -225 227 0
228 -225 106 0
-228 225 227 0
-228 225 106 0
228 -225 105 -108 0
228 -225 -105 108 0
-228 225 105 -108 0
-228 225 -105 108 0
228 225 -227 105 108 -106 0
228 225 -227 -105 -108 -106 0
-228 -225 -227 105 108 -106 0
-228 -225 -227 -105 -108 -106 0
230 227 -105 0
230 -227 105 0
-230 227 105 0
-230 -227 -105 0
229 108 -106 0
229 -108 106 0
-229 108 106 0
-229 -108 -106 0
231 -228 230 0
231 -228 104 0
-231 228 230 0
-231 228 104 0
231 -228 103 -106 0
231 -228 -103 106 0
-231 228 103 -106 0
-231 228 -103 106 0
231 228 -230 103 106 -104 0
231 228 -230 -103 -106 -104 0
-231 -228 -230 103 106 -104 0
-231 -228 -230 -103 -106 -104 0
233 230 -103 0
233 -230 103 0
-233 230 103 0
-233 -230 -103 0
232 106 -104 0
232 -106 104 0
-232 106 104 0
-232 -106 -104 0
234 -231 233 0
234 -231 102 0
-234 231 233 0
-234 231 102 0
234 -231 101 -104 0
234 -231 -101 104 0
-234 231 101 -104 0
-234 231 -101 104 0
234 231 -233 101 104 -102 0
234 231 -233 -101 -104 -102 0
-234 -231 -233 101 104 -102 0
-234 -231 -233 -101 -104 -102 0
236 233 -101 0
236 -233 101 0
-236 233 101 0
-236 -233 -101 0
235 104 -102 0
235 -104 102 0
-235 104 102 0
-235 -104 -102 0
237 -234 236 0
237 -234 100 0
-237 234 236 0
-237 234 100 0
237 -234 99 -102 0
237 -234 -99 102 0
-237 234 99 -102 0
-237 234 -99 102 0
237 234 -236 99 102 -100 0
237 234 -236 -99 -102 -100 0
-237 -234 -236 99 102 -100 0
-237 -234 -236 -99 -102 -100 0
239 236 -99 0
239 -236 99 0
-239 236 99 0
-239 -236 -99 0
238 102 -100 0
238 -102 100 0
-238 102 100 0
-238 -102 -100 0
240 -237 239 0
240 -237 98 0
-240 237 239 0
-240 237 98 0
240 -237 97 -100 0
240 -237 -97 100 0
-240 237 97 -100 0
-240 237 -97 100 0
240 237 -239 97 100 -98 0
240 237 -239 -97 -100 -98 0
-240 -237 -239 97 100 -98 0
-240 -237 -239 -97 -100 -98 0
242 239 -97 0
242 -239 97 0
-242 239 97 0
-242 -239 -97 0
241 100 -98 0
241 -100 98 0
-241 100 98 0
-241 -100 -98 0
243 -240 242 0
243 -240 96 0
-243 240 242 0
-243 240 96 0
243 -240 95 -98 0
243 -240 -95 98 0
-243 240 95 -98 0
-243 240 -95 98 0
243 240 -242 95 98 -96 0
243 240 -242 -95 -98 -96 0
-243 -240 -242 95 98 -96 0
-243 -240 -242 -95 -98 -96 0
245 242 -95 0
245 -242 95 0
-245 242 95 0
-245 -242 -95 0
244 98 -96 0
244 -98 96 0
-244 98 96 0
-244 -98 -96 0
246 -243 245 0
246 -243 94 0
-246 243 245 0
-246 243 94 0
246 -243 93 -96 0
246 -243 -93 96 0
-246 243 93 -96 0
-246 243 -93 96 0
246 243 -245 93 96 -94 0
246 243 -245 -93 -96 -94 0
-246 -243 -245 93 96 -94 0
-246 -243 -245 -93 -96 -94 0
248 245 -93 0
248 -245 93 0
-248 245 93 0
-248 -245 -93 0
247 96 -94 0
247 -96 94 0
-247 96 94 0
-247 -96 -94 0
249 -246 248 0
249 -246 92 0
-249 246 248 0
-249 246 92 0
249 -246 91 -94 0
249 -246 -91 94 0
-249 246 91 -94 0
-249 246 -91 94 0
249 246 -248 91 94 -92 0
249 246 -248 -91 -94 -92 0
-249 -246 -248 91 94 -92 0
-249 -246 -248 -91 -94 -92 0
251 248 -91 0
251 -248 91 0
-251 248 91 0
-251 -248 -91 0
250 94 -92 0
250 -94 92 0
-250 94 92 0
-250 -94 -92 0
252 -249 251 0
252 -249 90 0
-252 249 251 0
-252 249 90 0
252 -249 89 -92 0
252 -249 -89 92 0
-252 249 89 -92 0
-252 249 -89 92 0
252 249 -251 89 92 -90 0
252 249 -251 -89 -92 -90 0
-252 -249 -251 89 92 -90 0
-252 -249 -251 -89 -92 -90 0
254 251 -89 0
254 -251 89 0
-254 251 89 0
-254 -251 -89 0
253 92 -90 0
253 -92 90 0
-253 92 90 0
-253 -92 -90 0
255 -252 254 0
255 -252 88 0
-255 252 254 0
-255 252 88 0
255 -252 87 -90 0
255 -252 -87 90 0
-255 252 87 -90 0
-255 252 -87 90 0
255 252 -254 87 90 -88 0
255 252 -254 -87 -90 -88 0
-255 -252 -254 87 90 -88 0
-255 -252 -254 -87 -90 -88 0
257 254 -87 0
257 -254 87 0
-257 254 87 0
-257 -254 -87 0
256 90 -88 0
256 -90 88 0
-256 90 88 0
-256 -90 -88 0
258 -255 257 0
258 -255 86 0
-258 255 257 0
-258 255 86 0
258 -255 85 -88 0
258 -255 -85 88 0
-258 255 85 -88 0
-258 255 -85 88 0
258 255 -257 85 88 -86 0
258 255 -257 -85 -88 -86 0
-258 -255 -257 85 88 -86 0
-258 -255 -257 -85 -88 -86 0
260 257 -85 0
260 -257 85 0
-260 257 85 0
-260 -257 -85 0
259 88 -86 0
259 -88 86 0
-259 88 86 0
-259 -88 -86 0
261 -258 260 0
261 -258 84 0
-261 258 260 0
-261 258 84 0
261 -258 83 -86 0
261 -258 -83 86 0
-261 258 83 -86 0
-261 258 -83 86 0
261 258 -260 83 86 -84 0
261 258 -260 -83 -86 -84 0
-261 -258 -260 83 86 -84 0
-261 -258 -260 -83 -86 -84 0
263 260 -83 0
263 -260 83 0
-263 260 83 0
-263 -260 -83 0
262 86 -84 0
262 -86 84 0
-262 86 84 0
-262 -86 -84 0
264 -261 263 0
264 -261 82 0
-264 261 263 0
-264 261 82 0
264 -261 81 -84 0
264 -261 -81 84 0
-264 261 81 -84 0
-264 261 -81 84 0
264 261 -263 81 84 -82 0
264 261 -263 -81 -84 -82 0
-264 -261 -263 81 84 -82 0
-264 -261 -263 -81 -84 -82 0
266 263 -81 0
266 -263 81 0
-266 263 81 0
-266 -263 -81 0
265 84 -82 0
265 -84 82 0
-265 84 82 0
-265 -84 -82 0
267 -264 266 0
267 -264 80 0
-267 264 266 0
-267 264 80 0
267 -264 79 -82 0
267 -264 -79 82 0
-267 264 79 -82 0
-267 264 -79 82 0
267 264 -266 79 82 -80 0
267 264 -266 -79 -82 -80 0
-267 -264 -266 79 82 -80 0
-267 -264 -266 -79 -82 -80 0
269 266 -79 0
269 -266 79 0
-269 266 79 0
-269 -266 -79 0
268 82 -80 0
268 -82 80 0
-268 82 80 0
-268 -82 -80 0
270 -267 269 0
270 -267 78 0
-270 267 269 0
-270 267 78 0
270 -267 77 -80 0
270 -267 -77 80 0
-270 267 77 -80 0
-270 267 -77 80 0
270 267 -269 77 80 -78 0
270 267 -269 -77 -80 -78 0
-270 -267 -269 77 80 -78 0
-270 -267 -269 -77 -80 -78 0
272 269 -77 0
272 -269 77 0
-272 269 77 0
-272 -269 -77 0
271 80 -78 0
271 -80 78 0
-271 80 78 0
-271 -80 -78 0
273 -270 272 0
273 -270 76 0
-273 270 272 0
-273 270 76 0
273 -270 75 -78 0
273 -270 -75 78 0
-273 270 75 -78 0
-273 270 -75 78 0
273 270 -272 75 78 -76 0
273 270 -272 -75 -78 -76 0
-273 -270 -272 75 78 -76 0
-273 -270 -272 -75 -78 -76 0
275 272 -75 0
275 -272 75 0
-275 272 75 0
-275 -272 -75 0
274 78 -76 0
274 -78 76 0
-274 78 76 0
-274 -78 -76 0
276 -273 275 0
276 -273 74 0
-276 273 275 0
-276 273 74 0
276 -273 73 -76 0
276 -273 -73 76 0
-276 273 73 -76 0
-276 273 -73 76 0
276 273 -275 73 76 -74 0
276 273 -275 -73 -76 -74 0
-276 -273 -275 73 76 -74 0
-276 -273 -275 -73 -76 -74 0
278 275 -73 0
278 -275 73 0
-278 275 73 0
-278 -275 -73 0
277 76 -74 0
277 -76 74 0
-277 76 74 0
-277 -76 -74 0
279 -276 278 0
279 -276 72 0
-279 276 278 0
-279 276 72 0
279 -276 71 -74 0
279 -276 -71 74 0
-279 276 71 -74 0
-279 276 -71 74 0
279 276 -278 71 74 -72 0
279 276 -278 -71 -74 -72 0
-279 -276 -278 71 74 -72 0
-279 -276 -278 -71 -74 -72 0
281 278 -71 0
281 -278 71 0
-281 278 71 0
-281 -278 -71 0
280 74 -72 0
280 -74 72 0
-280 74 72 0
-280 -74 -72 0
282 -279 281 0
282 -279 70 0
-282 279 281 0
-282 279 70 0
282 -279 69 -72 0
282 -279 -69 72 0
-282 279 69 -72 0
-282 279 -69 72 0
282 279 -281 69 72 -70 0
282 279 -281 -69 -72 -70 0
-282 -279 -281 69 72 -70 0
-282 -279 -281 -69 -72 -70 0
284 281 -69 0
284 -281 69 0
-284 281 69 0
-284 -281 -69 0
283 72 -70 0
283 -72 70 0
-283 72 70 0
-283 -72 -70 0
285 -282 284 0
285 -282 68 0
-285 282 284 0
-285 282 68 0
285 -282 67 -70 0
285 -282 -67 70 0
-285 282 67 -70 0
-285 282 -67 70 0
285 282 -284 67 70 -68 0
285 282 -284 -67 -70 -68 0
-285 -282 -284 67 70 -68 0
-285 -282 -284 -67 -70 -68 0
287 284 -67 0
287 -284 67 0
-287 284 67 0
-287 -284 -67 0
286 70 -68 0
286 -70 68 0
-286 70 68 0
-286 -70 -68 0
288 -285 287 0
288 -285 66 0
-288 285 287 0
-288 285 66 0
288 -285 65 -68 0
288 -285 -65 68 0
-288 285 65 -68 0
-288 285 -65 68 0
288 285 -287 65 68 -66 0
288 285 -287 -65 -68 -66 0
-288 -285 -287 65 68 -66 0
-288 -285 -287 -65 -68 -66 0
290 287 -65 0
290 -287 65 0
-290 287 65 0
-290 -287 -65 0
289 68 -66 0
289 -68 66 0
-289 68 66 0
-289 -68 -66 0
291 -288 290 0
291 -288 64 0
-291 288 290 0
-291 288 64 0
291 -288 63 -66 0
291 -288 -63 66 0
-291 288 63 -66 0
-291 288 -63 66 0
291 288 -290 63 66 -64 0
291 288 -290 -63 -66 -64 0
-291 -288 -290 63 66 -64 0
-291 -288 -290 -63 -66 -64 0
293 290 -63 0
293 -290 63 0
-293 290 63 0
-293 -290 -63 0
292 66 -64 0
292 -66 64 0
-292 66 64 0
-292 -66 -64 0
294 -291 293 0
294 -291 62 0
-294 291 293 0
-294 291 62 0
294 -291 61 -64 0
294 -291 -61 64 0
-294 291 61 -64 0
-294 291 -61 64 0
294 291 -293 61 64 -62 0
294 291 -293 -61 -64 -62 0
-294 -291 -293 61 64 -62 0
-294 -291 -293 -61 -64 -62 0
296 293 -61 0
296 -293 61 0
-296 293 61 0
-296 -293 -61 0
295 64 -62 0
295 -64 62 0
-295 64 62 0
-295 -64 -62 0
297 -294 296 0
297 -294 60 0
-297 294 296 0
-297 294 60 0
297 -294 59 -62 0
297 -294 -59 62 0
-297 294 59 -62 0
-297 294 -59 62 0
297 294 -296 59 62 -60 0
297 294 -296 -59 -62 -60 0
-297 -294 -296 59 62 -60 0
-297 -294 -296 -59 -62 -60 0
299 296 -59 0
299 -296 59 0
-299 296 59 0
-299 -296 -59 0
298 62 -60 0
298 -62 60 0
-298 62 60 0
-298 -62 -60 0
300 -297 299 0
300 -297 58 0
-300 297 299 0
-300 297 58 0
300 -297 57 -60 0
300 -297 -57 60 0
-300 297 57 -60 0
-300 297 -57 60 0
300 297 -299 57 60 -58 0
300 297 -299 -57 -60 -58 0
-300 -297 -299 57 60 -58 0
-300 -297 -299 -57 -60 -58 0
302 299 -57 0
302 -299 57 0
-302 299 57 0
-302 -299 -57 0
301 60 -58 0
301 -60 58 0
-301 60 58 0
-301 -60 -58 0
303 -300 302 0
303 -300 56 0
-303 300 302 0
-303 300 56 0
303 -300 55 -58 0
303 -300 -55 58 0
-303 300 55 -58 0
-303 300 -55 58 0
303 300 -302 55 58 -56 0
303 300 -302 -55 -58 -56 0
-303 -300 -302 55 58 -56 0
-303 -300 -302 -55 -58 -56 0
305 302 -55 0
305 -302 55 0
-305 302 55 0
-305 -302 -55 0
304 58 -56 0
304 -58 56 0
-304 58 56 0
-304 -58 -56 0
306 -303 305 0
306 -303 54 0
-306 303 305 0
-306 303 54 0
306 -303 53 -56 0
306 -303 -53 56 0
-306 303 53 -56 0
-306 303 -53 56 0
306 303 -305 53 56 -54 0
306 303 -305 -53 -56 -54 0
-306 -303 -305 53 56 -54 0
-306 -303 -305 -53 -56 -54 0
308 305 -53 0
308 -305 53 0
-308 305 53 0
-308 -305 -53 0
307 56 -54 0
307 -56 54 0
-307 56 54 0
-307 -56 -54 0
309 -306 308 0
309 -306 52 0
-309 306 308 0
-309 306 52 0
309 -306 51 -54 0
309 -306 -51 54 0
-309 306 51 -54 0
-309 306 -51 54 0
309 306 -308 51 54 -52 0
309 306 -308 -51 -54 -52 0
-309 -306 -308 51 54 -52 0
-309 -306 -308 -51 -54 -52 0
311 308 -51 0
311 -308 51 0
-311 308 51 0
-311 -308 -51 0
310 54 -52 0
310 -54 52 0
-310 54 52 0
-310 -54 -52 0
312 -309 311 0
312 -309 50 0
-312 309 311 0
-312 309 50 0
312 -309 49 -52 0
312 -309 -49 52 0
-312 309 49 -52 0
-312 309 -49 52 0
312 309 -311 49 52 -50 0
312 309 -311 -49 -52 -50 0
-312 -309 -311 49 52 -50 0
-312 -309 -311 -49 -52 -50 0
314 311 -49 0
314 -311 49 0
-314 311 49 0
-314 -311 -49 0
313 52 -50 0
313 -52 50 0
-313 52 50 0
-313 -52 -50 0
315 -312 314 0
315 -312 48 0
-315 312 314 0
-315 312 48 0
315 -312 47 -50 0
315 -312 -47 50 0
-315 312 47 -50 0
-315 312 -47 50 0
315 312 -314 47 50 -48 0
315 312 -314 -47 -50 -48 0
-315 -312 -314 47 50 -48 0
-315 -312 -314 -47 -50 -48 0
317 314 -47 0
317 -314 47 0
-317 314 47 0
-317 -314 -47 0
316 50 -48 0
316 -50 48 0
-316 50 48 0
-316 -50 -48 0
318 -315 317 0
318 -315 46 0
-318 315 317 0
-318 315 46 0
318 -315 45 -48 0
318 -315 -45 48 0
-318 315 45 -48 0
-318 315 -45 48 0
318 315 -317 45 48 -46 0
318 315 -317 -45 -48 -46 0
-318 -315 -317 45 48 -46 0
-318 -315 -317 -45 -48 -46 0
320 317 -45 0
320 -317 45 0
-320 317 45 0
-320 -317 -45 0
319 48 -46 0
319 -48 46 0
-319 48 46 0
-319 -48 -46 0
321 -318 320 0
321 -318 44 0
-321 318 320 0
-321 318 44 0
321 -318 43 -46 0
321 -318 -43 46 0
-321 318 43 -46 0
-321 318 -43 46 0
321 318 -320 43 46 -44 0
321 318 -320 -43 -46 -44 0
-321 -318 -320 43 46 -44 0
-321 -318 -320 -43 -46 -44 0
323 320 -43 0
323 -320 43 0
-323 320 43 0
-323 -320 -43 0
322 46 -44 0
322 -46 44 0
-322 46 44 0
-322 -46 -44 0
324 -321 323 0
324 -321 42 0
-324 321 323 0
-324 321 42 0
324 -321 41 -44 0
324 -321 -41 44 0
-324 321 41 -44 0
-324 321 -41 44 0
324 321 -323 41 44 -42 0
324 321 -323 -41 -44 -42 0
-324 -321 -323 41 44 -42 0
-324 -321 -323 -41 -44 -42 0
326 323 -41 0
326 -323 41 0
-326 323 41 0
-326 -323 -41 0
325 44 -42 0
325 -44 42 0
-325 44 42 0
-325 -44 -42 0
327 -324 326 0
327 -324 40 0
-327 324 326 0
-327 324 40 0
327 -324 39 -42 0
327 -324 -39 42 0
-327 324 39 -42 0
-327 324 -39 42 0
327 324 -326 39 42 -40 0
327 324 -326 -39 -42 -40 0
-327 -324 -326 39 42 -40 0
-327 -324 -326 -39 -42 -40 0
329 326 -39 0
329 -326 39 0
-329 326 39 0
-329 -326 -39 0
328 42 -40 0
328 -42 40 0
-328 42 40 0
-328 -42 -40 0
330 -327 329 0
330 -327 38 0
-330 327 329 0
-330 327 38 0
330 -327 37 -40 0
330 -327 -37 40 0
-330 327 37 -40 0
-330 327 -37 40 0
330 327 -329 37 40 -38 0
330 327 -329 -37 -40 -38 0
-330 -327 -329 37 40 -38 0
-330 -327 -329 -37 -40 -38 0
332 329 -37 0
332 -329 37 0
-332 329 37 0
-332 -329 -37 0
331 40 -38 0
331 -40 38 0
-331 40 38 0
-331 -40 -38 0
333 -330 332 0
333 -330 36 0
-333 330 332 0
-333 330 36 0
333 -330 35 -38 0
333 -330 -35 38 0
-333 330 35 -38 0
-333 330 -35 38 0
333 330 -332 35 38 -36 0
333 330 -332 -35 -38 -36 0
-333 -330 -332 35 38 -36 0
-333 -330 -332 -35 -38 -36 0
335 332 -35 0
335 -332 35 0
-335 332 35 0
-335 -332 -35 0
334 38 -36 0
334 -38 36 0
-334 38 36 0
-334 -38 -36 0
336 -333 335 0
336 -333 34 0
-336 333 335 0
-336 333 34 0
336 -333 33 -36 0
336 -333 -33 36 0
-336 333 33 -36 0
-336 333 -33 36 0
336 333 -335 33 36 -34 0
336 333 -335 -33 -36 -34 0
-336 -333 -335 33 36 -34 0
-336 -333 -335 -33 -36 -34 0
338 335 -33 0
338 -335 33 0
-338 335 33 0
-338 -335 -33 0
337 36 -34 0
337 -36 34 0
-337 36 34 0
-337 -36 -34 0
339 -336 338 0
339 -336 32 0
-339 336 338 0
-339 336 32 0
339 -336 31 -34 0
339 -336 -31 34 0
-339 336 31 -34 0
-339 336 -31 34 0
339 336 -338 31 34 -32 0
339 336 -338 -31 -34 -32 0
-339 -336 -338 31 34 -32 0
-339 -336 -338 -31 -34 -32 0
341 338 -31 0
341 -338 31 0
-341 338 31 0
-341 -338 -31 0
340 34 -32 0
340 -34 32 0
-340 34 32 0
-340 -34 -32 0
342 -339 341 0
342 -339 30 0
-342 339 341 0
-342 339 30 0
342 -339 29 -32 0
342 -339 -29 32 0
-342 339 29 -32 0
-342 339 -29 32 0
342 339 -341 29 32 -30 0
342 339 -341 -29 -32 -30 0
-342 -339 -341 29 32 -30 0
-342 -339 -341 -29 -32 -30 0
344 341 -29 0
344 -341 29 0
-344 341 29 0
-344 -341 -29 0
343 32 -30 0
343 -32 30 0
-343 32 30 0
-343 -32 -30 0
345 -342 344 0
345 -342 28 0
-345 342 344 0
-345 342 28 0
345 -342 27 -30 0
345 -342 -27 30 0
-345 342 27 -30 0
-345 342 -27 30 0
345 342 -344 27 30 -28 0
345 342 -344 -27 -30 -28 0
-345 -342 -344 27 30 -28 0
-345 -342 -344 -27 -30 -28 0
347 344 -27 0
347 -344 27 0
-347 344 27 0
-347 -344 -27 0
346 30 -28 0
346 -30 28 0
-346 30 28 0
-346 -30 -28 0
348 -345 347 0
348 -345 26 0
-348 345 347 0
-348 345 26 0
348 -345 25 -28 0
348 -345 -25 28 0
-348 345 25 -28 0
-348 345 -25 28 0
348 345 -347 25 28 -26 0
348 345 -347 -25 -28 -26 0
-348 -345 -347 25 28 -26 0
-348 -345 -347 -25 -28 -26 0
350 347 -25 0
350 -347 25 0
-350 347 25 0
-350 -347 -25 0
349 28 -26 0
349 -28 26 0
-349 28 26 0
-349 -28 -26 0
351 -348 350 0
351 -348 24 0
-351 348 350 0
-351 348 24 0
351 -348 23 -26 0
351 -348 -23 26 0
-351 348 23 -26 0
-351 348 -23 26 0
351 348 -350 23 26 -24 0
351 348 -350 -23 -26 -24 0
-351 -348 -350 23 26 -24 0
-351 -348 -350 -23 -26 -24 0
353 350 -23 0
353 -350 23 0
-353 350 23 0
-353 -350 -23 0
352 26 -24 0
352 -26 24 0
-352 26 24 0
-352 -26 -24 0
354 -351 353 0
354 -351 22 0
-354 351 353 0
-354 351 22 0
354 -351 21 -24 0
354 -351 -21 24 0
-354 351 21 -24 0
-354 351 -21 24 0
354 351 -353 21 24 -22 0
354 351 -353 -21 -24 -22 0
-354 -351 -353 21 24 -22 0
-354 -351 -353 -21 -24 -22 0
356 353 -21 0
356 -353 21 0
-356 353 21 0
-356 -353 -21 0
355 24 -22 0
355 -24 22 0
-355 24 22 0
-355 -24 -22 0
357 -354 356 0
357 -354 20 0
-357 354 356 0
-357 354 20 0
357 -354 19 -22 0
357 -354 -19 22 0
-357 354 19 -22 0
-357 354 -19 22 0
357 354 -356 19 22 -20 0
357 354 -356 -19 -22 -20 0
-357 -354 -356 19 22 -20 0
-357 -354 -356 -19 -22 -20 0
359 356 -19 0
359 -356 19 0
-359 356 19 0
-359 -356 -19 0
358 22 -20 0
358 -22 20 0
-358 22 20 0
-358 -22 -20 0
360 -357 359 0
360 -357 18 0
-360 357 359 0
-360 357 18 0
360 -357 17 -20 0
360 -357 -17 20 0
-360 357 17 -20 0
-360 357 -17 20 0
360 357 -359 17 20 -18 0
360 357 -359 -17 -20 -18 0
-360 -357 -359 17 20 -18 0
-360 -357 -359 -17 -20 -18 0
362 359 -17 0
362 -359 17 0
-362 359 17 0
-362 -359 -17 0
361 20 -18 0
361 -20 18 0
-361 20 18 0
-361 -20 -18 0
363 -360 362 0
363 -360 16 0
-363 360 362 0
-363 360 16 0
363 -360 15 -18 0
363 -360 -15 18 0
-363 360 15 -18 0
-363 360 -15 18 0
363 360 -362 15 18 -16 0
363 360 -362 -15 -18 -16 0
-363 -360 -362 15 18 -16 0
-363 -360 -362 -15 -18 -16 0
365 362 -15 0
365 -362 15 0
-365 362 15 0
-365 -362 -15 0
364 18 -16 0
364 -18 16 0
-364 18 16 0
-364 -18 -16 0
366 -363 365 0
366 -363 14 0
-366 363 365 0
-366 363 14 0
366 -363 13 -16 0
366 -363 -13 16 0
-366 363 13 -16 0
-366 363 -13 16 0
366 363 -365 13 16 -14 0
366 363 -365 -13 -16 -14 0
-366 -363 -365 13 16 -14 0
-366 -363 -365 -13 -16 -14 0
368 365 -13 0
368 -365 13 0
-368 365 13 0
-368 -365 -13 0
367 16 -14 0
367 -16 14 0
-367 16 14 0
-367 -16 -14 0
369 -366 368 0
369 -366 12 0
-369 366 368 0
-369 366 12 0
369 -366 11 -14 0
369 -366 -11 14 0
-369 366 11 -14 0
-369 366 -11 14 0
369 366 -368 11 14 -12 0
369 366 -368 -11 -14 -12 0
-369 -366 -368 11 14 -12 0
-369 -366 -368 -11 -14 -12 0
371 368 -11 0
371 -368 11 0
-371 368 11 0
-371 -368 -11 0
370 14 -12 0
370 -14 12 0
-370 14 12 0
-370 -14 -12 0
372 -369 371 0
372 -369 10 0
-372 369 371 0
-372 369 10 0
372 -369 9 -12 0
372 -369 -9 12 0
-372 369 9 -12 0
-372 369 -9 12 0
372 369 -371 9 12 -10 0
372 369 -371 -9 -12 -10 0
-372 -369 -371 9 12 -10 0
-372 -369 -371 -9 -12 -10 0
374 371 -9 0
374 -371 9 0
-374 371 9 0
-374 -371 -9 0
373 12 -10 0
373 -12 10 0
-373 12 10 0
-373 -12 -10 0
375 -372 374 0
375 -372 8 0
-375 372 374 0
-375 372 8 0
375 -372 7 -10 0
375 -372 -7 10 0
-375 372 7 -10 0
-375 372 -7 10 0
375 372 -374 7 10 -8 0
375 372 -374 -7 -10 -8 0
-375 -372 -374 7 10 -8 0
-375 -372 -374 -7 -10 -8 0
377 374 -7 0
377 -374 7 0
-377 374 7 0
-377 -374 -7 0
376 10 -8 0
376 -10 8 0
-376 10 8 0
-376 -10 -8 0
378 -375 377 0
378 -375 6 0
-378 375 377 0
-378 375 6 0
378 -375 5 -8 0
378 -375 -5 8 0
-378 375 5 -8 0
-378 375 -5 8 0
378 375 -377 5 8 -6 0
378 375 -377 -5 -8 -6 0
-378 -375 -377 5 8 -6 0
-378 -375 -377 -5 -8 -6 0
380 377 -5 0
380 -377 5 0
-380 377 5 0
-380 -377 -5 0
379 8 -6 0
379 -8 6 0
-379 8 6 0
-379 -8 -6 0
381 -378 380 0
381 -378 4 0
-381 378 380 0
-381 378 4 0
381 -378 3 -6 0
381 -378 -3 6 0
-381 378 3 -6 0
-381 378 -3 6 0
381 378 -380 3 6 -4 0
381 378 -380 -3 -6 -4 0
-381 -378 -380 3 6 -4 0
-381 -378 -380 -3 -6 -4 0
383 380 -3 0
383 -380 3 0
-383 380 3 0
-383 -380 -3 0
382 6 -4 0
382 -6 4 0
-382 6 4 0
-382 -6 -4 0
384 -381 383 0
384 -381 2 0
-384 381 383 0
-384 381 2 0
384 -381 1 -4 0
384 -381 -1 4 0
-384 381 1 -4 0
-384 381 -1 4 0
384 381 -383 1 4 -2 0
384 381 -383 -1 -4 -2 0
-384 -381 -383 1 4 -2 0
-384 -381 -383 -1 -4 -2 0
386 383 -1 0
386 -383 1 0
-386 383 1 0
-386 -383 -1 0
385 4 -2 0
385 -4 2 0
-385 4 2 0
-385 -4 -2 0
-386 0
-383 0
-385 0
-380 0
-382 0
-377 0
-379 0
-374 0
-376 0
-371 0
-373 0
-368 0
-370 0
-365 0
-367 0
-362 0
-364 0
-359 0
-361 0
-356 0
-358 0
-353 0
-355 0
-350 0
-352 0
-347 0
-349 0
-344 0
-346 0
-341 0
-343 0
-338 0
-340 0
-335 0
-337 0
-332 0
-334 0
-329 0
-331 0
-326 0
-328 0
-323 0
-325 0
-320 0
-322 0
-317 0
-319 0
-314 0
-316 0
-311 0
-313 0
-308 0
-310 0
-305 0
-307 0
-302 0
-304 0
-299 0
-301 0
-296 0
-298 0
-293 0
-295 0
-290 0
-292 0
-287 0
-289 0
-284 0
-286 0
-281 0
-283 0
-278 0
-280 0
-275 0
-277 0
-272 0
-274 0
-269 0
-271 0
-266 0
-268 0
-263 0
-265 0
-260 0
-262 0
-257 0
-259 0
-254 0
-256 0
-251 0
-253 0
-248 0
-250 0
-245 0
-247 0
-242 0
-244 0
-239 0
-241 0
-236 0
-238 0
-233 0
-235 0
-230 0
-232 0
-227 0
-229 0
-224 0
-226 0
-221 0
-223 0
-218 0
-220 0
-215 0
-217 0
-212 0
-214 0
-209 0
-211 0
-206 0
-208 0
-203 0
-205 0
-200 0
-202 0
-197 0
-199 0
-194 0
-196 0
-191 0
-193 0
-188 0
-190 0
-185 0
-187 0
-182 0
-184 0
-179 0
-181 0
-176 0
-178 0
-173 0
-175 0
-170 0
-172 0
-167 0
-169 0
-164 0
-166 0
-157 0
-163 0
